34 14
1 694
6 683
1 736
11 315
8 280
13 648
6 801
1 109
11 347
4 817
5 448
1 35
9 148
2 218
7 153
10 138
2 305
1 459
6 122
4 467
3 694
12 782
7 247
7 752
2 6
1 459
6 665
7 360
9 944
5 873
9 849
13 931
13 412
12 449
